(declare-datatype Nat ((Z) (S (proj1-S Nat))))
(define-fun-rec
  ==
  ((x Nat) (y Nat)) Bool
  (match x
    ((Z
      (match y
        ((Z true)
         ((S z) false))))
     ((S x2)
      (match y
        ((Z false)
         ((S y2) (== x2 y2))))))))
(define-fun-rec
  <=2
  ((x Nat) (y Nat)) Bool
  (match x
    ((Z true)
     ((S z)
      (match y
        ((Z false)
         ((S x2) (<=2 z x2))))))))
(assert-not (forall ((n Nat)) (= (<=2 n Z) (== n Z))))
(assert-claim (forall ((x Nat) (y Nat)) (=> (== y x) (= x y))))
(assert-claim (forall ((x Nat)) (<=2 x x)))
(assert-claim (forall ((x Nat) (y Nat)) (= (== y x) (== x y))))
(assert-claim (forall ((x Nat)) (== x x)))
(assert-claim
  (forall ((x Nat) (y Nat)) (=> (<=2 x y) (= (<=2 y x) (== x y)))))
(assert-claim (forall ((x Nat)) (<=2 Z x)))
(assert-claim (forall ((x Nat)) (<=2 x (S x))))
(assert-claim
  (forall ((x Nat) (y Nat)) (=> (<=2 x y) (<=2 x (S y)))))
(assert-claim (forall ((x Nat)) (not (<=2 (S x) x))))
(assert-claim
  (forall ((x Nat) (y Nat)) (=> (<=2 y x) (not (<=2 (S x) y)))))
(assert-claim
  (forall ((x Nat) (y Nat)) (= (<=2 (S x) (S y)) (<=2 x y))))
(assert-claim
  (forall ((x Nat) (y Nat)) (= (== (S x) (S y)) (== x y))))
